c leafs=52, vars=13, seed=1, tickle=None
p cnf 606 1624                                                                
e 14 15 16 17 18 19 20 21 22 23 24 25 26 27 28 29 30 31 32 33 34 35 36 37 38 39 40 41 42 43 44 45 46 47 48 49 50 51 52 53 54 55 56 57 58 59 60 61 62 63 64 65  0
a 1 2 3 4 5 6 7 8 9 10 11 12 13  0
e 66 67 68 69 70 71 72 73 74 75 76 77 78 79 80 81 82 83 84 85 86 87 88 89 90 91 92 93 94 95 96 97 98 99 100 101 102 103 104 105 106 107 108 109 110 111 112 113 114 115 116 117 118 119 120 121 122 123 124 125 126 127 128 129 130 131 132 133 134 135 136 137 138 139 140 141 142 143 144 145 146 147 148 149 150 151 152 153 154 155 156 157 158 159 160 161 162 163 164 165 166 167 168 169 170 171 172 173 174 175 176 177 178 179 180 181 182 183 184 185 186 187 188 189 190 191 192 193 194 195 196 197 198 199 200 201 202 203 204 205 206 207 208 209 210 211 212 213 214 215 216 217 218 219 220 221 222 223 224 225 226 227 228 229 230 231 232 233 234 235 236 237 238 239 240 241 242 243 244 245 246 247 248 249 250 251 252 253 254 255 256 257 258 259 260 261 262 263 264 265 266 267 268 269 270 271 272 273 274 275 276 277 278 279 280 281 282 283 284 285 286 287 288 289 290 291 292 293 294 295 296 297 298 299 300 301 302 303 304 305 306 307 308 309 310 311 312 313 314 315 316 317 318 319 320 321 322 323 324 325 326 327 328 329 330 331 332 333 334 335 336 337 338 339 340 341 342 343 344 345 346 347 348 349 350 351 352 353 354 355 356 357 358 359 360 361 362 363 364 365 366 367 368 369 370 371 372 373 374 375 376 377 378 379 380 381 382 383 384 385 386 387 388 389 390 391 392 393 394 395 396 397 398 399 400 401 402 403 404 405 406 407 408 409 410 411 412 413 414 415 416 417 418 419 420 421 422 423 424 425 426 427 428 429 430 431 432 433 434 435 436 437 438 439 440 441 442 443 444 445 446 447 448 449 450 451 452 453 454 455 456 457 458 459 460 461 462 463 464 465 466 467 468 469 470 471 472 473 474 475 476 477 478 479 480 481 482 483 484 485 486 487 488 489 490 491 492 493 494 495 496 497 498 499 500 501 502 503 504 505 506 507 508 509 510 511 512 513 514 515 516 517 518 519 520 521 522 523 524 525 526 527 528 529 530 531 532 533 534 535 536 537 538 539 540 541 542 543 544 545 546 547 548 549 550 551 552 553 554 555 556 557 558 559 560 561 562 563 564 565 566 567 568 569 570 571 572 573 574 575 576 577 578 579 580 581 582 583 584 585 586 587 588 589 590 591 592 593 594 595 596 597 598 599 600 601 602 603 604 605 606  0
606  0
66 13 -10  0
-66 -13  0
-66 10  0
67 10 -13  0
-67 -10  0
-67 13  0
68 5 -10  0
-68 -5  0
-68 10  0
69 -5 -10  0
-69 5  0
-69 10  0
70 -7 -13  0
-70 7  0
-70 13  0
71 13 7  0
-71 -13  0
-71 -7  0
-72 2 6  0
72 -2  0
72 -6  0
-73 -2 6  0
73 2  0
73 -6  0
-74 -8 7  0
74 8  0
74 -7  0
-75 -7 8  0
75 7  0
75 -8  0
-76 -11 -2  0
76 11  0
76 2  0
-77 2 11  0
77 -2  0
77 -11  0
78 5 -8  0
-78 -5  0
-78 8  0
79 -5 -8  0
-79 5  0
-79 8  0
80 3 -11  0
-80 -3  0
-80 11  0
81 11 -3  0
-81 -11  0
-81 3  0
-82 -10 -1  0
82 10  0
82 1  0
-83 1 10  0
83 -1  0
83 -10  0
-84 11 12  0
84 -11  0
84 -12  0
-85 -12 -11  0
85 12  0
85 11  0
-86 1 3  0
86 -1  0
86 -3  0
-87 -3 1  0
87 3  0
87 -1  0
-88 -5 -1  0
88 5  0
88 1  0
-89 -1 5  0
89 1  0
89 -5  0
90 61 -6  0
-90 -61  0
-90 6  0
91 3 -61  0
-91 -3  0
-91 61  0
-92 8 60  0
92 -8  0
92 -60  0
-93 -60 11  0
93 60  0
93 -11  0
-94 2 59  0
94 -2  0
94 -59  0
-95 -59 -4  0
95 59  0
95 4  0
96 62 -10  0
-96 -62  0
-96 10  0
97 -6 -62  0
-97 6  0
-97 62  0
98 63 9  0
-98 -63  0
-98 -9  0
99 -5 -63  0
-99 5  0
-99 63  0
-100 7 64  0
100 -7  0
100 -64  0
-101 -64 -4  0
101 64  0
101 4  0
-102 -65 8  0
102 65  0
102 -8  0
-103 5 65  0
103 -5  0
103 -65  0
-104 -58 1  0
104 58  0
104 -1  0
-105 8 58  0
105 -8  0
105 -58  0
106 57 7  0
-106 -57  0
-106 -7  0
107 5 -57  0
-107 -5  0
-107 57  0
108 56 12  0
-108 -56  0
-108 -12  0
109 11 -56  0
-109 -11  0
-109 56  0
-110 -53 -11  0
110 53  0
110 11  0
-111 2 53  0
111 -2  0
111 -53  0
-112 -8 54  0
112 8  0
112 -54  0
-113 -54 -13  0
113 54  0
113 13  0
-114 10 55  0
114 -10  0
114 -55  0
-115 -55 -8  0
115 55  0
115 8  0
-116 -46 -6  0
116 46  0
116 6  0
-117 -13 46  0
117 13  0
117 -46  0
118 -1 -48  0
-118 1  0
-118 48  0
119 48 -3  0
-119 -48  0
-119 3  0
120 -10 -47  0
-120 10  0
-120 47  0
121 47 3  0
-121 -47  0
-121 -3  0
122 9 -49  0
-122 -9  0
-122 49  0
123 49 5  0
-123 -49  0
-123 -5  0
124 50 1  0
-124 -50  0
-124 -1  0
125 -2 -50  0
-125 2  0
-125 50  0
126 51 -12  0
-126 -51  0
-126 12  0
127 7 -51  0
-127 -7  0
-127 51  0
128 52 1  0
-128 -52  0
-128 -1  0
129 -11 -52  0
-129 11  0
-129 52  0
130 -5 -45  0
-130 5  0
-130 45  0
131 45 -10  0
-131 -45  0
-131 10  0
-132 2 44  0
132 -2  0
132 -44  0
-133 -44 13  0
133 44  0
133 -13  0
-134 -43 -11  0
134 43  0
134 11  0
-135 -7 43  0
135 7  0
135 -43  0
-136 -41 -11  0
136 41  0
136 11  0
-137 8 41  0
137 -8  0
137 -41  0
-138 -3 42  0
138 3  0
138 -42  0
-139 -42 2  0
139 42  0
139 -2  0
140 40 -5  0
-140 -40  0
-140 5  0
141 4 -40  0
-141 -4  0
-141 40  0
-142 -24 -12  0
142 24  0
142 12  0
-143 -9 24  0
143 9  0
143 -24  0
-144 -23 -7  0
144 23  0
144 7  0
-145 -6 23  0
145 6  0
145 -23  0
-146 -5 26  0
146 5  0
146 -26  0
-147 -26 13  0
147 26  0
147 -13  0
-148 -10 25  0
148 10  0
148 -25  0
-149 -25 -5  0
149 25  0
149 5  0
-150 -5 20  0
150 5  0
150 -20  0
-151 -20 -2  0
151 20  0
151 2  0
-152 -11 21  0
152 11  0
152 -21  0
-153 -21 3  0
153 21  0
153 -3  0
154 -1 -22  0
-154 1  0
-154 22  0
155 22 2  0
-155 -22  0
-155 -2  0
-156 6 18  0
156 -6  0
156 -18  0
-157 -18 -2  0
157 18  0
157 2  0
-158 -5 17  0
158 5  0
158 -17  0
-159 -17 -3  0
159 17  0
159 3  0
160 -8 -19  0
-160 8  0
-160 19  0
161 19 -10  0
-161 -19  0
-161 10  0
-162 -7 15  0
162 7  0
162 -15  0
-163 -15 -9  0
163 15  0
163 9  0
-164 -14 2  0
164 14  0
164 -2  0
-165 -11 14  0
165 11  0
165 -14  0
166 1 -16  0
-166 -1  0
-166 16  0
167 16 -12  0
-167 -16  0
-167 12  0
168 -13 -29  0
-168 13  0
-168 29  0
169 29 11  0
-169 -29  0
-169 -11  0
170 -8 -28  0
-170 8  0
-170 28  0
171 28 -3  0
-171 -28  0
-171 3  0
172 27 1  0
-172 -27  0
-172 -1  0
173 -10 -27  0
-173 10  0
-173 27  0
-174 6 32  0
174 -6  0
174 -32  0
-175 -32 -12  0
175 32  0
175 12  0
-176 -1 31  0
176 1  0
176 -31  0
-177 -31 -2  0
177 31  0
177 2  0
178 5 -30  0
-178 -5  0
-178 30  0
179 30 9  0
-179 -30  0
-179 -9  0
-180 -39 7  0
180 39  0
180 -7  0
-181 -9 39  0
181 9  0
181 -39  0
-182 -38 8  0
182 38  0
182 -8  0
-183 -3 38  0
183 3  0
183 -38  0
-184 -37 -10  0
184 37  0
184 10  0
-185 -4 37  0
185 4  0
185 -37  0
-186 1 36  0
186 -1  0
186 -36  0
-187 -36 -6  0
187 36  0
187 6  0
-188 -34 5  0
188 34  0
188 -5  0
-189 -13 34  0
189 13  0
189 -34  0
-190 -7 33  0
190 7  0
190 -33  0
-191 -33 5  0
191 33  0
191 -5  0
192 35 12  0
-192 -35  0
-192 -12  0
193 4 -35  0
-193 -4  0
-193 35  0
-194 -1 10  0
194 1  0
194 -10  0
-195 -10 1  0
195 10  0
195 -1  0
-196 -13 7  0
196 13  0
196 -7  0
-197 -7 13  0
197 7  0
197 -13  0
-198 66 67  0
198 -66  0
198 -67  0
-199 -6 68  0
199 6  0
199 -68  0
-200 6 69  0
200 -6  0
200 -69  0
-201 70 71  0
201 -70  0
201 -71  0
-202 -11 72  0
202 11  0
202 -72  0
-203 11 73  0
203 -11  0
203 -73  0
204 -74 -75  0
-204 74  0
-204 75  0
205 -76 -77  0
-205 76  0
-205 77  0
-206 -12 78  0
206 12  0
206 -78  0
-207 12 79  0
207 -12  0
207 -79  0
-208 80 81  0
208 -80  0
208 -81  0
209 -82 -83  0
-209 82  0
-209 83  0
210 -84 -85  0
-210 84  0
-210 85  0
-211 13 86  0
211 -13  0
211 -86  0
-212 -13 87  0
212 13  0
212 -87  0
-213 -11 88  0
213 11  0
213 -88  0
-214 11 89  0
214 -11  0
214 -89  0
-215 90 91  0
215 -90  0
215 -91  0
216 -92 -93  0
-216 92  0
-216 93  0
217 -94 -95  0
-217 94  0
-217 95  0
-218 96 97  0
218 -96  0
218 -97  0
-219 98 99  0
219 -98  0
219 -99  0
220 -100 -101  0
-220 100  0
-220 101  0
221 -102 -103  0
-221 102  0
-221 103  0
222 -104 -105  0
-222 104  0
-222 105  0
-223 106 107  0
223 -106  0
223 -107  0
-224 108 109  0
224 -108  0
224 -109  0
225 -110 -111  0
-225 110  0
-225 111  0
226 -112 -113  0
-226 112  0
-226 113  0
227 -114 -115  0
-227 114  0
-227 115  0
228 -116 -117  0
-228 116  0
-228 117  0
-229 118 119  0
229 -118  0
229 -119  0
-230 120 121  0
230 -120  0
230 -121  0
-231 122 123  0
231 -122  0
231 -123  0
-232 124 125  0
232 -124  0
232 -125  0
-233 126 127  0
233 -126  0
233 -127  0
-234 128 129  0
234 -128  0
234 -129  0
-235 130 131  0
235 -130  0
235 -131  0
236 -132 -133  0
-236 132  0
-236 133  0
237 -134 -135  0
-237 134  0
-237 135  0
238 -136 -137  0
-238 136  0
-238 137  0
239 -138 -139  0
-239 138  0
-239 139  0
-240 140 141  0
240 -140  0
240 -141  0
241 -142 -143  0
-241 142  0
-241 143  0
242 -144 -145  0
-242 144  0
-242 145  0
243 -146 -147  0
-243 146  0
-243 147  0
244 -148 -149  0
-244 148  0
-244 149  0
245 -150 -151  0
-245 150  0
-245 151  0
246 -152 -153  0
-246 152  0
-246 153  0
-247 154 155  0
247 -154  0
247 -155  0
248 -156 -157  0
-248 156  0
-248 157  0
249 -158 -159  0
-249 158  0
-249 159  0
-250 160 161  0
250 -160  0
250 -161  0
251 -162 -163  0
-251 162  0
-251 163  0
252 -164 -165  0
-252 164  0
-252 165  0
-253 166 167  0
253 -166  0
253 -167  0
-254 168 169  0
254 -168  0
254 -169  0
-255 170 171  0
255 -170  0
255 -171  0
-256 172 173  0
256 -172  0
256 -173  0
257 -174 -175  0
-257 174  0
-257 175  0
258 -176 -177  0
-258 176  0
-258 177  0
-259 178 179  0
259 -178  0
259 -179  0
260 -180 -181  0
-260 180  0
-260 181  0
261 -182 -183  0
-261 182  0
-261 183  0
262 -184 -185  0
-262 184  0
-262 185  0
263 -186 -187  0
-263 186  0
-263 187  0
264 -188 -189  0
-264 188  0
-264 189  0
265 -190 -191  0
-265 190  0
-265 191  0
-266 192 193  0
266 -192  0
266 -193  0
267 -194 -195  0
-267 194  0
-267 195  0
268 -196 -197  0
-268 196  0
-268 197  0
269 -199 -200  0
-269 199  0
-269 200  0
270 4 -201  0
-270 -4  0
-270 201  0
271 -202 -203  0
-271 202  0
-271 203  0
272 6 -205  0
-272 -6  0
-272 205  0
273 -206 -207  0
-273 206  0
-273 207  0
274 -4 -208  0
-274 4  0
-274 208  0
-275 -6 209  0
275 6  0
275 -209  0
276 2 -210  0
-276 -2  0
-276 210  0
277 -2 -210  0
-277 2  0
-277 210  0
278 -211 -212  0
-278 211  0
-278 212  0
279 -213 -214  0
-279 213  0
-279 214  0
280 -216 -217  0
-280 216  0
-280 217  0
281 216 217  0
-281 -216  0
-281 -217  0
282 -218 -219  0
-282 218  0
-282 219  0
283 219 218  0
-283 -219  0
-283 -218  0
284 -220 -221  0
-284 220  0
-284 221  0
285 220 221  0
-285 -220  0
-285 -221  0
-286 223 224  0
286 -223  0
286 -224  0
-287 -223 -224  0
287 223  0
287 224  0
-288 226 227  0
288 -226  0
288 -227  0
-289 -226 -227  0
289 226  0
289 227  0
-290 229 230  0
290 -229  0
290 -230  0
-291 -229 -230  0
291 229  0
291 230  0
-292 231 232  0
292 -231  0
292 -232  0
-293 -231 -232  0
293 231  0
293 232  0
-294 233 234  0
294 -233  0
294 -234  0
-295 -233 -234  0
295 233  0
295 234  0
296 -236 -237  0
-296 236  0
-296 237  0
297 236 237  0
-297 -236  0
-297 -237  0
298 -238 -239  0
-298 238  0
-298 239  0
299 238 239  0
-299 -238  0
-299 -239  0
300 -241 -242  0
-300 241  0
-300 242  0
301 242 241  0
-301 -242  0
-301 -241  0
302 -243 -244  0
-302 243  0
-302 244  0
303 243 244  0
-303 -243  0
-303 -244  0
304 -245 -246  0
-304 245  0
-304 246  0
305 245 246  0
-305 -245  0
-305 -246  0
306 -248 -249  0
-306 248  0
-306 249  0
307 249 248  0
-307 -249  0
-307 -248  0
308 -251 -252  0
-308 251  0
-308 252  0
309 252 251  0
-309 -252  0
-309 -251  0
310 -254 -255  0
-310 254  0
-310 255  0
311 254 255  0
-311 -254  0
-311 -255  0
312 -257 -258  0
-312 257  0
-312 258  0
313 257 258  0
-313 -257  0
-313 -258  0
314 -260 -261  0
-314 260  0
-314 261  0
315 260 261  0
-315 -260  0
-315 -261  0
316 -262 -263  0
-316 262  0
-316 263  0
317 262 263  0
-317 -262  0
-317 -263  0
318 -264 -265  0
-318 264  0
-318 265  0
319 264 265  0
-319 -264  0
-319 -265  0
320 -6 -267  0
-320 6  0
-320 267  0
321 4 -268  0
-321 -4  0
-321 268  0
322 10 -270  0
-322 -10  0
-322 270  0
-323 -9 -270  0
323 9  0
323 270  0
-324 9 270  0
324 -9  0
324 -270  0
325 -10 -270  0
-325 10  0
-325 270  0
-326 271 204  0
326 -271  0
326 -204  0
-327 10 271  0
327 -10  0
327 -271  0
-328 -10 272  0
328 10  0
328 -272  0
-329 10 272  0
329 -10  0
329 -272  0
-330 -10 271  0
330 10  0
330 -271  0
-331 5 276  0
331 -5  0
331 -276  0
-332 -5 277  0
332 5  0
332 -277  0
-333 280 281  0
333 -280  0
333 -281  0
-334 282 283  0
334 -282  0
334 -283  0
-335 284 285  0
335 -284  0
335 -285  0
336 -286 -287  0
-336 286  0
-336 287  0
337 -288 -289  0
-337 288  0
-337 289  0
338 -290 -291  0
-338 290  0
-338 291  0
339 -292 -293  0
-339 292  0
-339 293  0
340 -294 -295  0
-340 294  0
-340 295  0
-341 296 297  0
341 -296  0
341 -297  0
-342 298 299  0
342 -298  0
342 -299  0
-343 300 301  0
343 -300  0
343 -301  0
-344 302 303  0
344 -302  0
344 -303  0
-345 304 305  0
345 -304  0
345 -305  0
-346 306 307  0
346 -306  0
346 -307  0
-347 308 309  0
347 -308  0
347 -309  0
-348 310 311  0
348 -310  0
348 -311  0
-349 312 313  0
349 -312  0
349 -313  0
-350 314 315  0
350 -314  0
350 -315  0
-351 316 317  0
351 -316  0
351 -317  0
-352 318 319  0
352 -318  0
352 -319  0
-353 -10 321  0
353 10  0
353 -321  0
-354 10 321  0
354 -10  0
354 -321  0
355 -323 -324  0
-355 323  0
-355 324  0
356 -327 -328  0
-356 327  0
-356 328  0
357 -329 -330  0
-357 329  0
-357 330  0
358 -331 -332  0
-358 331  0
-358 332  0
-359 215 333  0
359 -215  0
359 -333  0
360 -334 -335  0
-360 334  0
-360 335  0
361 -222 -336  0
-361 222  0
-361 336  0
-362 225 337  0
362 -225  0
362 -337  0
-363 228 338  0
363 -228  0
363 -338  0
364 -339 -340  0
-364 339  0
-364 340  0
365 -235 -341  0
-365 235  0
-365 341  0
-366 342 240  0
366 -342  0
366 -240  0
-367 343 344  0
367 -343  0
367 -344  0
368 -345 -247  0
-368 345  0
-368 247  0
369 -346 -250  0
-369 346  0
-369 250  0
-370 347 253  0
370 -347  0
370 -253  0
371 -348 -256  0
-371 348  0
-371 256  0
-372 349 259  0
372 -349  0
372 -259  0
-373 350 351  0
373 -350  0
373 -351  0
374 -352 -266  0
-374 352  0
-374 266  0
375 3 -355  0
-375 -3  0
-375 355  0
376 -3 355  0
-376 3  0
-376 -355  0
-377 9 356  0
377 -9  0
377 -356  0
-378 -9 357  0
378 9  0
378 -357  0
-379 275 358  0
379 -275  0
379 -358  0
-380 -358 -275  0
380 358  0
380 275  0
381 -359 -360  0
-381 359  0
-381 360  0
382 360 359  0
-382 -360  0
-382 -359  0
383 -361 -362  0
-383 361  0
-383 362  0
384 362 361  0
-384 -362  0
-384 -361  0
385 -363 -364  0
-385 363  0
-385 364  0
386 363 364  0
-386 -363  0
-386 -364  0
387 -365 -366  0
-387 365  0
-387 366  0
388 366 365  0
-388 -366  0
-388 -365  0
389 -367 -368  0
-389 367  0
-389 368  0
390 368 367  0
-390 -368  0
-390 -367  0
391 -369 -370  0
-391 369  0
-391 370  0
392 370 369  0
-392 -370  0
-392 -369  0
393 -371 -372  0
-393 371  0
-393 372  0
394 372 371  0
-394 -372  0
-394 -371  0
395 -373 -374  0
-395 373  0
-395 374  0
396 374 373  0
-396 -374  0
-396 -373  0
-397 320 358  0
397 -320  0
397 -358  0
-398 -358 -320  0
398 358  0
398 320  0
-399 3 355  0
399 -3  0
399 -355  0
-400 -3 -355  0
400 3  0
400 355  0
-401 375 376  0
401 -375  0
401 -376  0
402 -377 -378  0
-402 377  0
-402 378  0
403 -379 -380  0
-403 379  0
-403 380  0
-404 381 382  0
404 -381  0
404 -382  0
-405 383 384  0
405 -383  0
405 -384  0
-406 385 386  0
406 -385  0
406 -386  0
-407 387 388  0
407 -387  0
407 -388  0
-408 389 390  0
408 -389  0
408 -390  0
-409 391 392  0
409 -391  0
409 -392  0
-410 393 394  0
410 -393  0
410 -394  0
-411 395 396  0
411 -395  0
411 -396  0
412 -397 -398  0
-412 397  0
-412 398  0
413 -399 -400  0
-413 399  0
-413 400  0
414 -10 -401  0
-414 10  0
-414 401  0
415 10 -401  0
-415 -10  0
-415 401  0
-416 402 -204  0
416 -402  0
416 204  0
417 10 -403  0
-417 -10  0
-417 403  0
-418 403 -201  0
418 -403  0
418 201  0
419 -10 -403  0
-419 10  0
-419 403  0
420 -404 -405  0
-420 404  0
-420 405  0
-421 406 407  0
421 -406  0
421 -407  0
422 -408 -409  0
-422 408  0
-422 409  0
-423 410 411  0
423 -410  0
423 -411  0
-424 412 -201  0
424 -412  0
424 201  0
-425 10 412  0
425 -10  0
425 -412  0
-426 -10 412  0
426 10  0
426 -412  0
-427 10 413  0
427 -10  0
427 -413  0
-428 -10 413  0
428 10  0
428 -413  0
-429 322 414  0
429 -322  0
429 -414  0
-430 415 325  0
430 -415  0
430 -325  0
431 -326 -416  0
-431 326  0
-431 416  0
-432 201 417  0
432 -201  0
432 -417  0
433 -419 201  0
-433 419  0
-433 -201  0
434 -420 -421  0
-434 420  0
-434 421  0
435 420 421  0
-435 -420  0
-435 -421  0
436 -422 -423  0
-436 422  0
-436 423  0
437 423 422  0
-437 -423  0
-437 -422  0
-438 201 425  0
438 -201  0
438 -425  0
-439 268 426  0
439 -268  0
439 -426  0
440 -353 -427  0
-440 353  0
-440 427  0
441 -428 -354  0
-441 428  0
-441 354  0
442 -1 -429  0
-442 1  0
-442 429  0
443 1 -430  0
-443 -1  0
-443 430  0
-444 10 431  0
444 -10  0
444 -431  0
-445 -10 431  0
445 10  0
445 -431  0
-446 11 431  0
446 -11  0
446 -431  0
447 -432 -418  0
-447 432  0
-447 418  0
-448 -274 433  0
448 274  0
448 -433  0
-449 434 435  0
449 -434  0
449 -435  0
-450 436 437  0
450 -436  0
450 -437  0
451 -424 -438  0
-451 424  0
-451 438  0
-452 439 -274  0
452 -439  0
452 274  0
-453 1 440  0
453 -1  0
453 -440  0
-454 -1 441  0
454 1  0
454 -441  0
-455 442 443  0
455 -442  0
455 -443  0
-456 -13 444  0
456 13  0
456 -444  0
-457 13 445  0
457 -13  0
457 -445  0
-458 -13 445  0
458 13  0
458 -445  0
-459 13 444  0
459 -13  0
459 -444  0
-460 274 447  0
460 -274  0
460 -447  0
-461 449 450  0
461 -449  0
461 -450  0
-462 274 451  0
462 -274  0
462 -451  0
463 -453 -454  0
-463 453  0
-463 454  0
464 -456 -457  0
-464 456  0
-464 457  0
465 -458 -459  0
-465 458  0
-465 459  0
466 -460 -448  0
-466 460  0
-466 448  0
467 -462 -452  0
-467 462  0
-467 452  0
-468 -11 464  0
468 11  0
468 -464  0
-469 -11 465  0
469 11  0
469 -465  0
-470 468 273  0
470 -468  0
470 -273  0
471 -446 -469  0
-471 446  0
-471 469  0
-472 471 -273  0
472 -471  0
472 273  0
473 -470 -472  0
-473 470  0
-473 472  0
-474 473 466  0
474 -473  0
474 -466  0
-475 -473 -466  0
475 473  0
475 466  0
-476 473 467  0
476 -473  0
476 -467  0
-477 -473 -467  0
477 473  0
477 467  0
478 -474 -475  0
-478 474  0
-478 475  0
479 -476 -477  0
-479 476  0
-479 477  0
-480 5 478  0
480 -5  0
480 -478  0
481 -6 -478  0
-481 6  0
-481 478  0
482 6 -478  0
-482 -6  0
-482 478  0
-483 478 -455  0
483 -478  0
483 455  0
-484 5 479  0
484 -5  0
484 -479  0
-485 6 479  0
485 -6  0
485 -479  0
-486 -6 479  0
486 6  0
486 -479  0
-487 -455 479  0
487 455  0
487 -479  0
-488 2 481  0
488 -2  0
488 -481  0
-489 -2 482  0
489 2  0
489 -482  0
-490 2 482  0
490 -2  0
490 -482  0
-491 -2 481  0
491 2  0
491 -481  0
-492 -2 485  0
492 2  0
492 -485  0
-493 2 486  0
493 -2  0
493 -486  0
-494 2 485  0
494 -2  0
494 -485  0
-495 -2 486  0
495 2  0
495 -486  0
496 -488 -489  0
-496 488  0
-496 489  0
497 -490 -491  0
-497 490  0
-497 491  0
498 -492 -493  0
-498 492  0
-498 493  0
499 -494 -495  0
-499 494  0
-499 495  0
-500 -5 496  0
500 5  0
500 -496  0
501 -5 -497  0
-501 5  0
-501 497  0
-502 -5 498  0
502 5  0
502 -498  0
-503 -5 499  0
503 5  0
503 -499  0
504 -480 -500  0
-504 480  0
-504 500  0
-505 -278 501  0
505 278  0
505 -501  0
-506 501 278  0
506 -501  0
506 -278  0
507 -484 -502  0
-507 484  0
-507 502  0
-508 503 -278  0
508 -503  0
508 278  0
-509 503 278  0
509 -503  0
509 -278  0
-510 504 278  0
510 -504  0
510 -278  0
-511 504 -278  0
511 -504  0
511 278  0
-512 507 278  0
512 -507  0
512 -278  0
-513 -278 507  0
513 278  0
513 -507  0
514 -510 -505  0
-514 510  0
-514 505  0
515 -511 -506  0
-515 511  0
-515 506  0
516 -512 -508  0
-516 512  0
-516 508  0
517 -509 -513  0
-517 509  0
-517 513  0
-518 455 514  0
518 -455  0
518 -514  0
519 455 -515  0
-519 -455  0
-519 515  0
-520 455 516  0
520 -455  0
520 -516  0
-521 517 463  0
521 -517  0
521 -463  0
522 -518 -483  0
-522 518  0
-522 483  0
-523 7 519  0
523 -7  0
523 -519  0
-524 -7 519  0
524 7  0
524 -519  0
-525 1 519  0
525 -1  0
525 -519  0
526 -520 -487  0
-526 520  0
-526 487  0
-527 1 521  0
527 -1  0
527 -521  0
-528 7 521  0
528 -7  0
528 -521  0
-529 -7 521  0
529 7  0
529 -521  0
-530 1 522  0
530 -1  0
530 -522  0
-531 -7 522  0
531 7  0
531 -522  0
-532 7 522  0
532 -7  0
532 -522  0
-533 -198 522  0
533 198  0
533 -522  0
-534 -7 526  0
534 7  0
534 -526  0
-535 7 526  0
535 -7  0
535 -526  0
-536 1 526  0
536 -1  0
536 -526  0
-537 -198 526  0
537 198  0
537 -526  0
538 -531 -523  0
-538 531  0
-538 523  0
539 -524 -532  0
-539 524  0
-539 532  0
540 -534 -528  0
-540 534  0
-540 528  0
541 -529 -535  0
-541 529  0
-541 535  0
-542 2 538  0
542 -2  0
542 -538  0
-543 -2 539  0
543 2  0
543 -539  0
-544 2 539  0
544 -2  0
544 -539  0
-545 -2 538  0
545 2  0
545 -538  0
-546 -2 540  0
546 2  0
546 -540  0
-547 2 541  0
547 -2  0
547 -541  0
-548 2 540  0
548 -2  0
548 -540  0
-549 -2 541  0
549 2  0
549 -541  0
550 -542 -543  0
-550 542  0
-550 543  0
551 -544 -545  0
-551 544  0
-551 545  0
552 -546 -547  0
-552 546  0
-552 547  0
553 -548 -549  0
-553 548  0
-553 549  0
-554 -1 550  0
554 1  0
554 -550  0
-555 -1 551  0
555 1  0
555 -551  0
-556 -1 552  0
556 1  0
556 -552  0
-557 -1 553  0
557 1  0
557 -553  0
558 -530 -554  0
-558 530  0
-558 554  0
559 -555 -525  0
-559 555  0
-559 525  0
560 -527 -556  0
-560 527  0
-560 556  0
561 -557 -536  0
-561 557  0
-561 536  0
-562 269 558  0
562 -269  0
562 -558  0
-563 -269 559  0
563 269  0
563 -559  0
-564 -269 560  0
564 269  0
564 -560  0
-565 269 561  0
565 -269  0
565 -561  0
566 -562 -563  0
-566 562  0
-566 563  0
567 -564 -565  0
-567 564  0
-567 565  0
-568 -7 566  0
568 7  0
568 -566  0
-569 7 566  0
569 -7  0
569 -566  0
-570 -198 566  0
570 198  0
570 -566  0
-571 7 567  0
571 -7  0
571 -567  0
-572 -7 567  0
572 7  0
572 -567  0
-573 567 -198  0
573 -567  0
573 198  0
574 -568 -532  0
-574 568  0
-574 532  0
575 -531 -569  0
-575 531  0
-575 569  0
576 -534 -571  0
-576 534  0
-576 571  0
577 -535 -572  0
-577 535  0
-577 572  0
-578 -12 574  0
578 12  0
578 -574  0
-579 12 575  0
579 -12  0
579 -575  0
-580 -12 575  0
580 12  0
580 -575  0
-581 12 574  0
581 -12  0
581 -574  0
-582 12 576  0
582 -12  0
582 -576  0
-583 -12 577  0
583 12  0
583 -577  0
-584 12 577  0
584 -12  0
584 -577  0
-585 -12 576  0
585 12  0
585 -576  0
586 -578 -579  0
-586 578  0
-586 579  0
587 -580 -581  0
-587 580  0
-587 581  0
588 -582 -583  0
-588 582  0
-588 583  0
589 -584 -585  0
-589 584  0
-589 585  0
-590 198 586  0
590 -198  0
590 -586  0
-591 587 198  0
591 -587  0
591 -198  0
-592 198 588  0
592 -198  0
592 -588  0
-593 198 589  0
593 -198  0
593 -589  0
594 -590 -570  0
-594 590  0
-594 570  0
595 -533 -591  0
-595 533  0
-595 591  0
596 -592 -573  0
-596 592  0
-596 573  0
597 -537 -593  0
-597 537  0
-597 593  0
-598 594 279  0
598 -594  0
598 -279  0
-599 595 -279  0
599 -595  0
599 279  0
-600 596 279  0
600 -596  0
600 -279  0
-601 -279 597  0
601 279  0
601 -597  0
602 -598 -599  0
-602 598  0
-602 599  0
603 -600 -601  0
-603 600  0
-603 601  0
-604 602 461  0
604 -602  0
604 -461  0
-605 603 -461  0
605 -603  0
605 461  0
606 -604 -605  0
-606 604  0
-606 605  0
